; benchmark generated from python API
(set-info :status unknown)
(define-funs-rec ( ( T2_12 ((x!1 Int)) Int)
                   ( e2_12 ((x!1 Int)) Int)
                   ( fe2_12 ((x!1 Int)) Int)
                   ( p2_12 ((x!1 Int)) Int)
                   ( T2_06 ((x!1 Int)) Int)
                   ( p2_06 ((x!1 Int)) Int))
                 ( (mod (+ ((_ e2_12 0) x!1) 1) 2)
                   (let ((a!1 ((_ fe2_12 0) (+ ((_ e2_12 0) (- x!1 1)) 1))))
                     (ite (= x!1 0) 0 a!1))
                   (ite (= (mod ((_ p2_12 0) x!1) 2) 0)
                        x!1
                        ((_ fe2_12 0) (+ x!1 1)))
                   (ite (= x!1 0) 0 (+ ((_ p2_12 0) (div x!1 2)) x!1))
                   ((_ p2_06 0) x!1)
                   (let ((a!1 (mod (- x!1 ((_ p2_06 0) (div x!1 2))) 2)))
                     (ite (= x!1 0) 0 a!1))))
(assert
 (forall ((n Int) )(let ((?x383 ((_ T2_12 0) n)))
(let ((?x382 ((_ T2_06 0) n)))
(let (($x406 (= ?x382 ?x383)))
(let (($x381 (>= n 0)))
(=> $x381 $x406))))))
)
(check-sat)
